\ENCODING=ISO-8859-1
\Problem name: 

Minimize
 obj: x1 + x2 + x3 + x4 + x5 + x6 + x7 + x8 + x9 + x10 + x11 + x12 + x13 + x14
      + x15 + x16 + x17 + x18 + x19 + x20 + x21 + x22 + x23 + x24 + x25 + x26
      + x27 + x28 + x29 + x30 + x31 + x32 + x33 + x34 + x35 + x36 + x37 + x38
      + x39 + x40 + x41 + x42 + x43 + x44 + x45 + x46 + x47 + x48 + x49 + x50
      + x51 + x52 + x53 + x54 + x55 + x56 + x57 + x58 + x59 + x60 + x61 + x62
      + x63 + x64 + x65 + x66 + x67 + x68 + x69 + x70 + x71 + x72 + x73 + x74
      + x75 + x76 + x77 + x78 + x79 + x80 + x81 + x82 + x83 + x84 + x85 + x86
      + x87 + x88 + x89 + x90 + x91 + x92 + x93 + x94 + x95 + x96 + x97 + x98
      + x99 + x100 + x101 + x102 + x103 + x104 + x105 + x106 + x107 + x108
      + x109 + x110 + x111 + x112 + x113 + x114 + x115 + x116 + x117 + x118
      + x119 + x120 + x121 + x122 + x123 + x124 + x125 + x126 + x127 + x128
      + x129 + x130 + x131 + x132 + x133 + x134 + x135 + x136 + x137 + x138
      + x139 + x140 + x141 + x142 + x143 + x144 + x145 + x146 + x147 + x148
      + x149 + x150 + x151 + x152 + x153 + x154 + x155 + x156 + x157 + x158
      + x159 + x160 + x161 + x162 + x163 + x164 + x165 + x166 + x167 + x168
      + x169 + x170 + x171 + x172 + x173 + x174 + x175 + x176 + x177 + x178
      + x179 + x180 + x181 + x182 + x183 + x184 + x185 + x186 + x187 + x188
      + x189 + x190 + x191 + x192 + x193 + x194 + x195 + x196 + x197 + x198
      + x199 + x200 + x201 + x202 + x203 + x204 + x205 + x206 + x207 + x208
      + x209 + x210 + x211 + x212 + x213 + x214 + x215 + x216 + x217 + x218
      + x219 + x220 + x221 + x222 + x223 + x224 + x225 + x226 + x227 + x228
      + x229 + x230 + x231 + x232 + x233 + x234 + x235 + x236 + x237 + x238
      + x239 + x240 + x241 + x242 + x243 + x244 + x245 + x246 + x247 + x248
      + x249 + x250 + x251 + x252 + x253 + x254 + x255 + x256 + x257 + x258
      + x259 + x260 + x261 + x262 + x263 + x264 + x265 + x266 + x267 + x268
      + x269 + x270 + x271 + x272 + x273 + x274 + x275 + x276 + x277 + x278
      + x279 + x280 + x281 + x282 + x283 + x284 + x285 + x286 + x287 + x288
      + x289 + x290 + x291 + x292 + x293 + x294 + x295 + x296 + x297 + x298
      + x299 + x300 + x301 + x302 + x303 + x304 + x305 + x306 + x307 + x308
      + x309 + x310 + x311 + x312 + x313 + x314 + x315 + x316 + x317 + x318
      + x319 + x320 + x321 + x322 + x323 + x324 + x325 + x326 + x327 + x328
      + x329 + x330 + x331 + x332 + x333 + x334 + x335 + x336 + x337 + x338
      + x339 + x340 + x341 + x342 + x343 + x344 + x345 + x346 + x347 + x348
      + x349 + x350 + x351 + x352 + x353 + x354 + x355 + x356 + x357 + x358
      + x359 + x360 + x361 + x362 + x363 + x364 + x365 + x366 + x367 + x368
      + x369 + x370 + x371 + x372 + x373 + x374 + x375 + x376 + x377 + x378
      + x379 + x380 + x381 + x382 + x383 + x384 + x385 + x386 + x387 + x388
      + x389 + x390 + x391 + x392 + x393 + x394 + x395 + x396 + x397 + x398
      + x399 + x400 + x401 + x402 + x403 + x404 + x405 + x406 + x407 + x408
      + x409 + x410 + x411 + x412 + x413 + x414 + x415 + x416 + x417 + x418
      + x419 + x420 + x421 + x422 + x423 + x424 + x425 + x426 + x427 + x428
      + x429 + x430 + x431 + x432 + x433 + x434 + x435 + x436 + x437 + x438
      + x439 + x440 + x441 + x442 + x443 + x444 + x445 + x446 + x447 + x448
      + x449 + x450 + x451 + x452 + x453 + x454 + x455 + x456 + x457 + x458
      + x459 + x460 + x461 + x462 + x463
Subject To
 c1:   x1 + 3 x157 + x273 + x280 + x400 + x402 + x432 + x450 >= 1
 c2:   x2 + 2 x193 + x281 + x282 + x368 + x397 >= 1
 c3:   x3 + 2 x190 + x215 + x216 + x436 + x447 >= 1
 c4:   x4 + 2 x177 + x240 + x242 + x327 + 2 x356 + x396 + x460 >= 1
 c5:   x5 + x268 + x269 + x286 + x396 >= 1
 c6:   x6 + x258 + x260 + x384 + x389 >= 1
 c7:   x7 + 3 x145 + x173 + x174 + x175 + x328 + x329 + x368 + x391 + x410
       + x463 >= 1
 c8:   x8 + 4 x141 + x145 + x146 + x147 + x319 + x324 + 3 x366 + x373 + x401
       + x427 + x445 >= 1
 c9:   x9 + 3 x165 + 1.99999999995746 x322 >= 1
 c10:  x10 + 3 x156 + x210 + x231 + x284 + x360 + x366 + x397 + x399 + x406
       >= 1
 c11:  x11 + 4 x137 + x148 + x149 + x182 + 2.00000000000001 x244 + x323 >= 1
 c12:  x12 + x217 + x218 + x283 + x304 + x309 + x453 >= 1
 c13:  x13 + 5 x128 + x150 + x151 + x152 + x184 + x210 + x239 + x245 + x253
       + x258 + x262 + 2 x268 + x292 + x313 + 2 x372 + x437 >= 1
 c14:  x14 + 2 x179 + x222 + x223 + x271 >= 1
 c15:  x15 + 3 x162 + x229 + 2 x314 + 2 x323 + x338 + x346 + 2 x367 >= 1
 c16:  x16 + x241 + x246 + x354 + x392 + x459 >= 1
 c17:  x17 + x248 + x252 + x259 >= 1
 c18:  x18 + x261 + x263 + x266 >= 1
 c19:  x19 + 3 x166 + 2 x326 + x434 + 2 x449 + x460 >= 1
 c20:  x20 + 3 x146 + x359 + x407 + x412 + x426 >= 1
 c21:  x21 + x249 + x251 + x277 + x365 + x440 + x457 >= 1
 c22:  x22 + 4 x138 + x179 + x180 + x181 + 2 x246 + x462 >= 1
 c23:  x23 + x216 + x228 + x333 + x437 + x438 + x445 >= 1
 c24:  x24 + 2 x202 + x402 + x407 + x414 >= 1
 c25:  x25 + 3 x169 + x363 + 1.00000000001587 x370 + x386 + x416 + x422 + x454
       >= 1
 c26:  x26 + 2 x195 + x309 + x335 + x379 + x452 >= 1
 c27:  x27 + 2 x183 + x260 + x383 + x444 >= 1
 c28:  x28 + 6 x123 + x153 + x154 + x155 + x156 + x229 + x303 + x440 + x446
       + x459 >= 1
 c29:  x29 + 2 x178 + x221 + x236 + x325 + x326 + 2 x349 + x441 + x463 >= 1
 c30:  x30 + 2 x198 + x358 + x360 + x442 >= 1
 c31:  x31 + 2 x204 >= 1
 c32:  x32 + 2 x191 + x306 + x319 + x328 + x331 + x408 >= 1
 c33:  x33 + 4 x139 + x176 + x177 + x178 + 2 x235 + x295 + 2 x320 + x457 >= 1
 c34:  x34 + 3 x153 + x208 + x230 + x294 + x298 + x300 + x440 >= 1
 c35:  x35 + 5 x130 + x185 + x214 + x304 + x323 + x333 + x365 + x417 >= 1
 c36:  x36 + 3 x167 + 2 x325 + 2 x327 + x423 + x433 + 2 x448 + x454 >= 1
 c37:  x37 + 5 x132 + x212 + x213 + x272 + x296 + x300 + x393 + x456 >= 1
 c38:  x38 + 2 x188 + x248 + x277 >= 1
 c39:  x39 + 5 x131 + x209 + x211 + x299 + x344 + x364 >= 1
 c40:  x40 + 2 x203 + x425 >= 1
 c41:  x41 + 3 x150 + x212 + x213 + x283 + x307 + x385 + x401 + x437 >= 1
 c42:  x42 + 3 x170 + x345 + x361 + x382 + x423 + x434 >= 1
 c43:  x43 + 2 x175 + x286 + x395 + 2 x405 + x424 + x463 >= 1
 c44:  x44 + x290 + x293 + x312 + x313 + 1.1962014712011e-11 x322 + x340 + x345
       + x387 >= 1
 c45:  x45 + x211 + x222 + x238 + x310 + x343 + x379 >= 1
 c46:  x46 + 4 x135 + x183 + 8.10462807976364e-15 x214 + 2 x252 + x258 + x269
       + x270 + x288 + 2 x376 + x445 + x455 + x457 >= 1
 c47:  x47 + 6 x125 + x230 + x290 + x310 + x315 + x344 >= 1
 c48:  x48 + 3 x147 + x408 + x428 + x443 >= 1
 c49:  x49 + x215 + x226 + x227 + x315 + x342 + x406 + x426 + x458 >= 1
 c50:  x50 + 5 x133 + x231 + x276 + x373 + x413 + x426 >= 1
 c51:  x51 + 4 x140 + x205 + x253 + 2 x317 + 2 x337 + x399 + x402 + x421
       + 1.00000000000199 x430 >= 1
 c52:  x52 + 3 x148 + x245 + x250 + x333 + x354 + x391 + x405 + x412 + x443
       >= 1
 c53:  x53 + 2 x176 + x220 + x237 + x241 + 2 x350 + x428 + x433 >= 1
 c54:  x54 + x235 + x244 + x245 + x255 + x294 + x308 >= 1
 c55:  x55 + 2 x186 + x233 + 4.44089209850063e-16 x283 + x291 + x367 + x374
       + x385 + x419 >= 1
 c56:  x56 + 3 x172 + x381 + x388 + 1.00000000000907 x420 + x435 >= 1
 c57:  x57 + 2 x173 + x217 + x219 + x274 + x394 + 2 x404 + x423 + x428 >= 1
 c58:  x58 + 5 x129 + x207 + x208 + x232 + x238 + x273
       + 1.64074785503417e-11 x321 + 2 x341 + x438 >= 1
 c59:  x59 + 5 x134 + x278 + x279 + x283 + x295 + x298 + x351 + x380 + x429
       + x432 >= 1
 c60:  x60 + 4 x143 + x346 + x350 + x356 + 2 x357 + x414 + x458 >= 1
 c61:  x61 + 7 x121 + x127 + x135 + x136 + x158 + x188 + x249 + x279 + x285
       + x288 + x348 + x378 >= 1
 c62:  x62 + x210 + x232 + x272 + x300 + x355 + x421 + x442 >= 1
 c63:  x63 + 3 x168 + x334 + x340 + x347 + x375 + x385 + 2 x394 + 2 x395 + x429
       + x433 + x460 + x461 >= 1
 c64:  x64 + 5 x127 + x186 + x187 + x206 + x254 + x255 + x257 + 2 x312 + x354
       + 2 x369 + x406 + x417 >= 1
 c65:  x65 + 3 x164 + x318 + x319 + 1.99999999998223 x321 + x378 + x390 + x455
       + x461 >= 1
 c66:  x66 + 3 x151 + x206 + x209 + x247 + x293 + x339 + x427 >= 1
 c67:  x67 + 2 x182 + x261 + x264 + x422 + x449 >= 1
 c68:  x68 + x288 + x289 + x370 + x420 >= 1
 c69:  x69 + x264 + x265 + x383 >= 1
 c70:  x70 + x276 - 1.11022302462516e-15 x283 + x284
       - 5.31626286193513e-12 x322 + x341 + x371 + x381 + x417 + x456 >= 1
 c71:  x71 + 2 x201 + x410 + x412 >= 1
 c72:  x72 + x236 + x242 + x320 + x351 + x400 + x446 >= 1
 c73:  x73 + 4 x144 + x257 + x364 + x365 - 2.38076225400618e-11 x370 + x393
       + x421 + x439 >= 1
 c74:  x74 + x271 + x275 + x441 >= 1
 c75:  x75 + x262 + x267 + x444 >= 1
 c76:  x76 + 3 x160 + x287 + x289 - 8.20329518572111e-12 x321 + 3 x348 + x368
       + x375 + x382 + x390 + x408 >= 1
 c77:  x77 + 2 x200 + x391 + x398 + x427 + x429 + x430 >= 1
 c78:  x78 + x247 + x256 + x376 + x378 + x415 + x462 >= 1
 c79:  x79 + x224 + x225 + x282 >= 1
 c80:  x80 + x214 + x299 + x418 >= 1
 c81:  x81 + 2 x197 + x352 + x355 + x418 + x453 >= 1
 c82:  x82 + x220 + x223 + x239 + x273 + x317 + x318 + x336 + x431 >= 1
 c83:  x83 + x205 + x254 + x398 + x403 + x425 >= 1
 c84:  x84 + x230 + x291 + x303 + x311 + x393 + x436 >= 1
 c85:  x85 + 3 x152 + x207 + x211 + x272 + x297 + x414
       - 1.36034041174428e-11 x420 + x438 >= 1
 c86:  x86 + x209 + x212 + x297 + x298 + x331 + x332 + x358 >= 1
 c87:  x87 + 2 x194 + x343 + x346 + x431 >= 1
 c88:  x88 + 6 x124 + x157 + x234 + x270 + x276 + x294 + x296 + x297 + x392
       + x415 + x451 >= 1
 c89:  x89 + 3 x154 + x232 + x239 + x299 + 3 x301 + x415
       + 0.999999999980098 x430 >= 1
 c90:  x90 + x253 + x257 + x295 + x353 + x419 >= 1
 c91:  x91 + 3 x159 + x302 + x303 + x315 + x392 + x416 + x422 >= 1
 c92:  x92 + x237 + x240 + x243 + x339 + x364 + x373 + x451 >= 1
 c93:  x93 + 2 x184 + x225 + x226 + 1.22124532708767e-15 x298 + x314 + x316
       + 0.999999999993355 x322 + x334 + 2 x380 + x384 >= 1
 c94:  x94 + 2 x174 + x218 + x275 + 2 x409 + 1.39307454460891e-11 x430 + x434
       + x439 + x454 >= 1
 c95:  x95 + 3 x171 + x371 + x377 + x387 >= 1
 c96:  x96 + x206 + x208 + x231 + x278 + x281 + x362 >= 1
 c97:  x97 + 2 x199 + x399 + x401 + x403 + x443 + x455 >= 1
 c98:  x98 + 2 x187 + x243 + x259 + x353 + x390 >= 1
 c99:  x99 + 4 x142 + x335 + x338 + x349 + x351 + x360 + 2 x362 >= 1
 c100: x100 + 3 x163 + 2 x316 + x324 + x335 + 2 x374 >= 1
 c101: x101 + x270 + x274 + x424 >= 1
 c102: x102 + 2 x192 + 1.50392079746613e-11 x321 + 2.39275266268932e-11 x322
       + x324 + x329 + x332 + x359 + x411 + x450 >= 1
 c103: x103 + 4 x136 + x250 + 2 x251 + x262 + x285 + x458 + x462 >= 1
 c104: x104 + x279 + x280 + x296 + x344 + x361 + x363 + x372 + x388 >= 1
 c105: x105 + 2 x196 + x336 + x338 >= 1
 c106: x106 + 3.21964677141295e-15 x231 + x233 + x234 + x330 >= 1
 c107: x107 + 2 x181 + x263 + x265 + x382 + x386 + x439 + x448 + x461 >= 1
 c108: x108 + x207 + x213 + x250 + x352 + x357 + x413 + x432 >= 1
 c109: x109 + 6 x126 + x313 + x318 + x339 + x342 >= 1
 c110: x110 - 1.11022302462516e-15 x214 + x219 + x221 + x292 + x306 + x337
       + x411 + x452 >= 1
 c111: x111 + 2 x180 + x224 + x266 + x267 + x416 >= 1
 c112: x112 + 2 x189 + x307 + x308 + x330 >= 1
 c113: x113 + x229 + x302 + x447 >= 1
 c114: x114 + 6 x122 + x247 + 2 x254 + x269 + x290 + x301 + x302 + x311 + x400
       + x456 >= 1
 c115: x115 + x285 + x287 + x305 + x347 + x369 + x377 + x435 >= 1
 c116: x116 + 2 x185 + x227 + x228 + x256 + 0.999999999994531 x321 + x375
       + x389 >= 1
 c117: x117 + 3 x155 + x234 + x238 - 7.105427357601e-15 x244 + x249
       + 8.88178419700125e-16 x262 + x278 + x328 + x329 + x413 >= 1
 c118: x118 + 3 x158 + x214 + x305 + x342 + x386 + x451 + x459 >= 1
 c119: x119 + 3 x161 + x292 + x304 + x307 + x310 + x311 + x334 + x359 + x446
       >= 1
 c120: x120 + 3 x149 + x205 + x255 + x397 + x404 + x407 + x409 + x410 + x450
       >= 1
End
